22898
1 0 1 0 0 1 0 1 0 0 0 1 0 1 1 0 0 1 0 0 1 0 0 0 1 1 0 0 0 0 
20 0 20 14 13 25 2 24 14 17 2 14 14 20 7 2 2 17 7 0 25 2 2 0 11 13 0 5 24 5 5 25 14 7 0 20 5 24 11 14 17 20 24 20 24 0 20 13 0 20 5 14 14 5 25 7 17 17 25 14 0 24 20 25 17 11 24 17 24 25 13 25 7 7 24 13 24 13 14 5 13 7 5 17 2 0 7 11 20 25 2 24 25 17 17 5 7 2 2 13 20 7 17 0 17 7 17 25 14 2 14 7 0 11 0 2 25 5 25 5 25 20 5 20 20 17 5 11 7 7 25 11 24 5 13 17 0 24 0 17 11 20 20 14 14 0 17 5 2 24 
